[2026-03-24T00:34:00.697Z] Pipeline "set_set_set_s007_g002" → 2026_03_24_00_34_00_set_set_set_s007_g002_max.sol
Set parameter WLSAccessID
Set parameter WLSSecret
Set parameter LicenseID to value 2792458
Set parameter LogFile to value "gurobi.log"
Using license file /root/gurobi.lic
Academic license 2792458 - for non-commercial use only - registered to an___@studenti.unipg.it

Gurobi Optimizer version 13.0.1 build v13.0.1rc0 (linux64 - "Ubuntu 24.04.4 LTS")
Copyright (c) 2026, Gurobi Optimization, LLC

Warning: Duplicate section found (read 'binary') - Is a variable name equal to an LP file format keyword?
Warning: Duplicate section found (read 'binary') - Is a variable name equal to an LP file format keyword?
Warning: Duplicate section found (read 'binary') - Is a variable name equal to an LP file format keyword?
Warning: Duplicate section found (read 'binary') - Is a variable name equal to an LP file format keyword?
Warning: Duplicate section found (read 'binary') - Is a variable name equal to an LP file format keyword?
Warning: Duplicate section found (read 'binary') - Is a variable name equal to an LP file format keyword?
Warning: Duplicate section found (read 'binary') - Is a variable name equal to an LP file format keyword?
Warning: Duplicate section found (read 'binary') - Is a variable name equal to an LP file format keyword?
Warning: Duplicate section found (read 'binary') - Is a variable name equal to an LP file format keyword?
Warning: Duplicate section found (read 'binary') - Is a variable name equal to an LP file format keyword?
Warning: Further warnings of this type will be omitted.
Read LP format model from file /root/bgw/data/uploads/2026_03_24_00_34_00_set_set_set_s007_g002_max.lp
Reading time = 0.00 seconds
: 673 rows, 122 columns, 1962 nonzeros

Using Gurobi shared library /opt/gurobi1301/linux64/lib/libgurobi.so.13.0.1

CPU model: AMD EPYC-Genoa Processor, instruction set [SSE2|AVX|AVX2|AVX512]
Thread count: 16 physical cores, 16 logical processors, using up to 16 threads

Academic license 2792458 - for non-commercial use only - registered to an___@studenti.unipg.it
Optimize a model with 673 rows, 122 columns and 1962 nonzeros (Max)
Model fingerprint: 0xb4b81ca8
Model has 17 linear objective coefficients
Variable types: 29 continuous, 93 integer (93 binary)
Coefficient statistics:
  Matrix range     [1e+00, 1e+01]
  Objective range  [1e+00, 1e+00]
  Bounds range     [1e+00, 1e+00]
  RHS range        [1e+00, 1e+01]

Found heuristic solution: objective 17.0000000
Presolve removed 203 rows and 38 columns
Presolve time: 0.00s
Presolved: 470 rows, 84 columns, 1464 nonzeros
Variable types: 0 continuous, 84 integer (78 binary)
Found heuristic solution: objective 32.0000000

Root relaxation: objective 9.000000e+01, 53 iterations, 0.00 seconds (0.00 work units)

    Nodes    |    Current Node    |     Objective Bounds      |     Work
 Expl Unexpl |  Obj  Depth IntInf | Incumbent    BestBd   Gap | It/Node Time

     0     0   90.00000    0   17   32.00000   90.00000   181%     -    0s
H    0     0                      38.0000000   90.00000   137%     -    0s
H    0     0                      39.0000000   90.00000   131%     -    0s
H    0     0                      46.0000000   90.00000  95.7%     -    0s
H    0     0                      47.0000000   90.00000  91.5%     -    0s
     0     0   90.00000    0   17   47.00000   90.00000  91.5%     -    0s
     0     0   90.00000    0   19   47.00000   90.00000  91.5%     -    0s
     0     0   90.00000    0   16   47.00000   90.00000  91.5%     -    0s
     0     0   83.00000    0   24   47.00000   83.00000  76.6%     -    0s
     0     0   83.00000    0   18   47.00000   83.00000  76.6%     -    0s
     0     0   83.00000    0   17   47.00000   83.00000  76.6%     -    0s
     0     0   83.00000    0   14   47.00000   83.00000  76.6%     -    0s
     0     0   83.00000    0   20   47.00000   83.00000  76.6%     -    0s
     0     0   83.00000    0   14   47.00000   83.00000  76.6%     -    0s
     0     0   82.30000    0   20   47.00000   82.30000  75.1%     -    0s
     0     0   82.30000    0   18   47.00000   82.30000  75.1%     -    0s
     0     0   81.30000    0   17   47.00000   81.30000  73.0%     -    0s
     0     0   81.30000    0   14   47.00000   81.30000  73.0%     -    0s
     0     0   76.00000    0   14   47.00000   76.00000  61.7%     -    0s
     0     0   76.00000    0   14   47.00000   76.00000  61.7%     -    0s
     0     2   76.00000    0   14   47.00000   76.00000  61.7%     -    0s

Cutting planes:
  MIR: 1
  Inf proof: 5
  Zero half: 1

Explored 962 nodes (13237 simplex iterations) in 0.20 seconds (0.13 work units)
Thread count was 16 (of 16 available processors)

Solution count 6: 47 46 39 ... 17

Optimal solution found (tolerance 1.00e-04)
Best objective 4.700000000000e+01, best bound 4.700000000000e+01, gap 0.0000%

Wrote result file '/root/bgw/data/results/2026_03_24_00_34_00_set_set_set_s007_g002_max.sol'

